# Initialize
units           real
atom_style      full

# Define interactions
pair_style      lj/cut/coul/long 12 12
pair_modify     mix arithmetic
kspace_style    pppm 1e-6
bond_style      harmonic
angle_style     charmm
dihedral_style  charmm
special_bonds   lj/coul 0.0 0.0 1.0
improper_style  harmonic

# Read quartz crystal coordinates, topology, and coefficients
read_data       quartz.iff.data

# Compute energy
run 0